20
5	87	208	48	65
26	417	95	52	6
48	453	142	83	99
43	273	342	42	24
14	238	284	13	11
45	126	115	21	64
12	188	212	19	8
1	335	315	91	74
47	165	320	86	91
33	231	214	78	19
44	116	140	46	3
47	369	308	86	40
21	167	203	37	89
6	472	76	46	93
15	357	193	46	33
5	457	321	67	5
11	490	281	63	19
46	103	61	80	27
10	112	149	28	74
13	320	80	98	76
